Minimize
	value: tt

Subject to
tt + 500 s_1_1 > 0
tt - t_1_1 - 503.000000 s_1_1 + 3.000000 s_1_6 > -496.301720
tt + 500 s_2_1 > 0
tt - t_2_1 - 503.000000 s_2_1 + 3.000000 s_2_6 > -493.819245
tt + 500 s_1_2 > 0
tt - t_1_2 - 503.000000 s_1_2 + 3.000000 s_1_7 > -495.273590
tt + 500 s_2_2 > 0
tt - t_2_2 - 503.000000 s_2_2 + 3.000000 s_2_7 > -492.112511
tt + 500 s_1_3 > 0
tt - t_1_3 - 503.000000 s_1_3 + 3.000000 s_1_7 > -494.750280
tt + 500 s_2_3 > 0
tt - t_2_3 - 503.000000 s_2_3 + 3.000000 s_2_7 > -495.532826
tt + 500 s_1_4 > 0
tt - t_1_4 - 512.000000 s_1_4 + 12.000000 s_1_3 > -497.337853
tt + 500 s_2_4 > 0
tt - t_2_4 - 512.000000 s_2_4 + 12.000000 s_2_3 > -495.674156
tt + 500 s_1_5 > 0
tt - t_1_5 - 512.000000 s_1_5 + 12.000000 s_1_6 > -497.667200
tt + 500 s_2_5 > 0
tt - t_2_5 - 512.000000 s_2_5 + 12.000000 s_2_6 > -498.149262
tt + 500 s_1_6 > 0
tt - t_1_6 - 500.000000 s_1_6 > -492.295120
tt + 500 s_2_6 > 0
tt - t_2_6 - 500.000000 s_2_6 > -486.908729
tt + 500 s_1_7 > 0
tt - t_1_7 - 500.000000 s_1_7 > -495.251720
tt + 500 s_2_7 > 0
tt - t_2_7 - 500.000000 s_2_7 > -499.689705
tt + 500 s_1_8 > 0
tt - t_1_8 - 575.000000 s_1_8 + 75.000000 s_1_3 > -499.604120
tt + 500 s_2_8 > 0
tt - t_2_8 - 575.000000 s_2_8 + 75.000000 s_2_3 > -499.404500
s_1_1 + s_2_1  = 1
s_1_2 + s_2_2  = 1
s_1_3 + s_2_3  = 1
s_1_4 + s_2_4  = 1
s_1_5 + s_2_5  = 1
s_1_6 + s_2_6  = 1
s_1_7 + s_2_7  = 1
s_1_8 + s_2_8  = 1
t_1_1 - t_1_2 + 500.000000 u_1_1_2 - 3.000000 s_1_2 + 3.000000 s_1_7 > 4.726410
t_1_2 - t_1_1 - 500.000000 u_1_1_2 > -496.301720
t_2_1 - t_2_2 + 500.000000 u_2_1_2 - 3.000000 s_2_2 + 3.000000 s_2_7 > 7.887489
t_2_2 - t_2_1 - 500.000000 u_2_1_2 > -493.819245
t_1_1 - t_1_3 + 500.000000 u_1_1_3 - 3.000000 s_1_3 + 3.000000 s_1_7 > 5.249720
t_1_3 - t_1_1 - 500.000000 u_1_1_3 > -496.301720
t_2_1 - t_2_3 + 500.000000 u_2_1_3 - 3.000000 s_2_3 + 3.000000 s_2_7 > 4.467174
t_2_3 - t_2_1 - 500.000000 u_2_1_3 > -493.819245
t_1_1 - t_1_4 + 500.000000 u_1_1_4 - 6.000000 s_1_4 + 6.000000 s_1_3 > 2.662147
t_1_4 - t_1_1 - 500.000000 u_1_1_4 > -496.301720
t_2_1 - t_2_4 + 500.000000 u_2_1_4 - 6.000000 s_2_4 + 6.000000 s_2_3 > 4.325844
t_2_4 - t_2_1 - 500.000000 u_2_1_4 > -493.819245
t_1_1 - t_1_5 + 500.000000 u_1_1_5 - 6.000000 s_1_5 + 6.000000 s_1_6 > 2.332800
t_1_5 - t_1_1 - 500.000000 u_1_1_5 > -496.301720
t_2_1 - t_2_5 + 500.000000 u_2_1_5 - 6.000000 s_2_5 + 6.000000 s_2_6 > 1.850738
t_2_5 - t_2_1 - 500.000000 u_2_1_5 > -493.819245
t_1_1 - t_1_6 - 500.000000 s_1_6 > -489.295120
t_1_1 - t_2_6 - 500.000000 s_2_6 > -483.908729
t_2_1 - t_1_6 - 500.000000 s_1_6 > -489.295120
t_2_1 - t_2_6 - 500.000000 s_2_6 > -483.908729
t_1_1 - t_1_7 + 500.000000 u_1_1_7 > 4.748280
t_1_7 - t_1_1 - 500.000000 u_1_1_7 > -496.301720
t_2_1 - t_2_7 + 500.000000 u_2_1_7 > 0.310295
t_2_7 - t_2_1 - 500.000000 u_2_1_7 > -493.819245
t_1_8 - t_1_1 - 500.000000 s_1_1 > -493.301720
t_1_8 - t_2_1 - 500.000000 s_2_1 > -490.819245
t_2_8 - t_1_1 - 500.000000 s_1_1 > -493.301720
t_2_8 - t_2_1 - 500.000000 s_2_1 > -490.819245
t_1_2 - t_1_1 + 500.000000 u_1_2_1 - 3.000000 s_1_1 + 3.000000 s_1_6 > 3.698280
t_1_1 - t_1_2 - 500.000000 u_1_2_1 > -495.273590
t_2_2 - t_2_1 + 500.000000 u_2_2_1 - 3.000000 s_2_1 + 3.000000 s_2_6 > 6.180755
t_2_1 - t_2_2 - 500.000000 u_2_2_1 > -492.112511
t_1_2 - t_1_3 + 500.000000 u_1_2_3 - 3.000000 s_1_3 + 3.000000 s_1_7 > 5.249720
t_1_3 - t_1_2 - 500.000000 u_1_2_3 > -495.273590
t_2_2 - t_2_3 + 500.000000 u_2_2_3 - 3.000000 s_2_3 + 3.000000 s_2_7 > 4.467174
t_2_3 - t_2_2 - 500.000000 u_2_2_3 > -492.112511
t_1_2 - t_1_4 + 500.000000 u_1_2_4 - 6.000000 s_1_4 + 6.000000 s_1_3 > 2.662147
t_1_4 - t_1_2 - 500.000000 u_1_2_4 > -495.273590
t_2_2 - t_2_4 + 500.000000 u_2_2_4 - 6.000000 s_2_4 + 6.000000 s_2_3 > 4.325844
t_2_4 - t_2_2 - 500.000000 u_2_2_4 > -492.112511
t_1_2 - t_1_5 + 500.000000 u_1_2_5 - 6.000000 s_1_5 + 6.000000 s_1_6 > 2.332800
t_1_5 - t_1_2 - 500.000000 u_1_2_5 > -495.273590
t_2_2 - t_2_5 + 500.000000 u_2_2_5 - 6.000000 s_2_5 + 6.000000 s_2_6 > 1.850738
t_2_5 - t_2_2 - 500.000000 u_2_2_5 > -492.112511
t_1_2 - t_1_6 + 500.000000 u_1_2_6 > 7.704880
t_1_6 - t_1_2 - 500.000000 u_1_2_6 > -495.273590
t_2_2 - t_2_6 + 500.000000 u_2_2_6 > 13.091271
t_2_6 - t_2_2 - 500.000000 u_2_2_6 > -492.112511
t_1_2 - t_1_7 - 500.000000 s_1_7 > -492.251720
t_1_2 - t_2_7 - 500.000000 s_2_7 > -496.689705
t_2_2 - t_1_7 - 500.000000 s_1_7 > -492.251720
t_2_2 - t_2_7 - 500.000000 s_2_7 > -496.689705
t_1_8 - t_1_2 - 500.000000 s_1_2 > -492.273590
t_1_8 - t_2_2 - 500.000000 s_2_2 > -489.112511
t_2_8 - t_1_2 - 500.000000 s_1_2 > -492.273590
t_2_8 - t_2_2 - 500.000000 s_2_2 > -489.112511
t_1_3 - t_1_1 + 500.000000 u_1_3_1 - 3.000000 s_1_1 + 3.000000 s_1_6 > 3.698280
t_1_1 - t_1_3 - 500.000000 u_1_3_1 > -494.750280
t_2_3 - t_2_1 + 500.000000 u_2_3_1 - 3.000000 s_2_1 + 3.000000 s_2_6 > 6.180755
t_2_1 - t_2_3 - 500.000000 u_2_3_1 > -495.532826
t_1_3 - t_1_2 + 500.000000 u_1_3_2 - 3.000000 s_1_2 + 3.000000 s_1_7 > 4.726410
t_1_2 - t_1_3 - 500.000000 u_1_3_2 > -494.750280
t_2_3 - t_2_2 + 500.000000 u_2_3_2 - 3.000000 s_2_2 + 3.000000 s_2_7 > 7.887489
t_2_2 - t_2_3 - 500.000000 u_2_3_2 > -495.532826
t_1_4 - t_1_3 - 500.000000 s_1_3 > -491.750280
t_1_4 - t_2_3 - 500.000000 s_2_3 > -492.532826
t_2_4 - t_1_3 - 500.000000 s_1_3 > -491.750280
t_2_4 - t_2_3 - 500.000000 s_2_3 > -492.532826
t_1_3 - t_1_5 + 500.000000 u_1_3_5 - 6.000000 s_1_5 + 6.000000 s_1_6 > 2.332800
t_1_5 - t_1_3 - 500.000000 u_1_3_5 > -494.750280
t_2_3 - t_2_5 + 500.000000 u_2_3_5 - 6.000000 s_2_5 + 6.000000 s_2_6 > 1.850738
t_2_5 - t_2_3 - 500.000000 u_2_3_5 > -495.532826
t_1_3 - t_1_6 + 500.000000 u_1_3_6 > 7.704880
t_1_6 - t_1_3 - 500.000000 u_1_3_6 > -494.750280
t_2_3 - t_2_6 + 500.000000 u_2_3_6 > 13.091271
t_2_6 - t_2_3 - 500.000000 u_2_3_6 > -495.532826
t_1_3 - t_1_7 - 500.000000 s_1_7 > -492.251720
t_1_3 - t_2_7 - 500.000000 s_2_7 > -496.689705
t_2_3 - t_1_7 - 500.000000 s_1_7 > -492.251720
t_2_3 - t_2_7 - 500.000000 s_2_7 > -496.689705
t_1_8 - t_1_3 - 500.000000 s_1_3 > -491.750280
t_1_8 - t_2_3 - 500.000000 s_2_3 > -492.532826
t_2_8 - t_1_3 - 500.000000 s_1_3 > -491.750280
t_2_8 - t_2_3 - 500.000000 s_2_3 > -492.532826
t_1_4 - t_1_1 + 500.000000 u_1_4_1 - 3.000000 s_1_1 + 3.000000 s_1_6 > 3.698280
t_1_1 - t_1_4 - 500.000000 u_1_4_1 > -497.337853
t_2_4 - t_2_1 + 500.000000 u_2_4_1 - 3.000000 s_2_1 + 3.000000 s_2_6 > 6.180755
t_2_1 - t_2_4 - 500.000000 u_2_4_1 > -495.674156
t_1_4 - t_1_2 + 500.000000 u_1_4_2 - 3.000000 s_1_2 + 3.000000 s_1_7 > 4.726410
t_1_2 - t_1_4 - 500.000000 u_1_4_2 > -497.337853
t_2_4 - t_2_2 + 500.000000 u_2_4_2 - 3.000000 s_2_2 + 3.000000 s_2_7 > 7.887489
t_2_2 - t_2_4 - 500.000000 u_2_4_2 > -495.674156
t_1_4 - t_1_3 - 500.000000 s_1_3 > -491.750280
t_1_4 - t_2_3 - 500.000000 s_2_3 > -492.532826
t_2_4 - t_1_3 - 500.000000 s_1_3 > -491.750280
t_2_4 - t_2_3 - 500.000000 s_2_3 > -492.532826
t_1_4 - t_1_5 + 500.000000 u_1_4_5 - 6.000000 s_1_5 + 6.000000 s_1_6 > 2.332800
t_1_5 - t_1_4 - 500.000000 u_1_4_5 > -497.337853
t_2_4 - t_2_5 + 500.000000 u_2_4_5 - 6.000000 s_2_5 + 6.000000 s_2_6 > 1.850738
t_2_5 - t_2_4 - 500.000000 u_2_4_5 > -495.674156
t_1_4 - t_1_6 + 500.000000 u_1_4_6 > 7.704880
t_1_6 - t_1_4 - 500.000000 u_1_4_6 > -497.337853
t_2_4 - t_2_6 + 500.000000 u_2_4_6 > 13.091271
t_2_6 - t_2_4 - 500.000000 u_2_4_6 > -495.674156
t_1_4 - t_1_7 - 500.000000 s_1_7 > -492.251720
t_1_4 - t_2_7 - 500.000000 s_2_7 > -496.689705
t_2_4 - t_1_7 - 500.000000 s_1_7 > -492.251720
t_2_4 - t_2_7 - 500.000000 s_2_7 > -496.689705
t_1_8 - t_1_4 - 500.000000 s_1_4 > -491.337853
t_1_8 - t_2_4 - 500.000000 s_2_4 > -489.674156
t_2_8 - t_1_4 - 500.000000 s_1_4 > -491.337853
t_2_8 - t_2_4 - 500.000000 s_2_4 > -489.674156
t_1_5 - t_1_1 + 500.000000 u_1_5_1 - 3.000000 s_1_1 + 3.000000 s_1_6 > 3.698280
t_1_1 - t_1_5 - 500.000000 u_1_5_1 > -497.667200
t_2_5 - t_2_1 + 500.000000 u_2_5_1 - 3.000000 s_2_1 + 3.000000 s_2_6 > 6.180755
t_2_1 - t_2_5 - 500.000000 u_2_5_1 > -498.149262
t_1_5 - t_1_2 + 500.000000 u_1_5_2 - 3.000000 s_1_2 + 3.000000 s_1_7 > 4.726410
t_1_2 - t_1_5 - 500.000000 u_1_5_2 > -497.667200
t_2_5 - t_2_2 + 500.000000 u_2_5_2 - 3.000000 s_2_2 + 3.000000 s_2_7 > 7.887489
t_2_2 - t_2_5 - 500.000000 u_2_5_2 > -498.149262
t_1_5 - t_1_3 + 500.000000 u_1_5_3 - 3.000000 s_1_3 + 3.000000 s_1_7 > 5.249720
t_1_3 - t_1_5 - 500.000000 u_1_5_3 > -497.667200
t_2_5 - t_2_3 + 500.000000 u_2_5_3 - 3.000000 s_2_3 + 3.000000 s_2_7 > 4.467174
t_2_3 - t_2_5 - 500.000000 u_2_5_3 > -498.149262
t_1_5 - t_1_4 + 500.000000 u_1_5_4 - 6.000000 s_1_4 + 6.000000 s_1_3 > 2.662147
t_1_4 - t_1_5 - 500.000000 u_1_5_4 > -497.667200
t_2_5 - t_2_4 + 500.000000 u_2_5_4 - 6.000000 s_2_4 + 6.000000 s_2_3 > 4.325844
t_2_4 - t_2_5 - 500.000000 u_2_5_4 > -498.149262
t_1_5 - t_1_6 - 500.000000 s_1_6 > -489.295120
t_1_5 - t_2_6 - 500.000000 s_2_6 > -483.908729
t_2_5 - t_1_6 - 500.000000 s_1_6 > -489.295120
t_2_5 - t_2_6 - 500.000000 s_2_6 > -483.908729
t_1_5 - t_1_7 - 500.000000 s_1_7 > -492.251720
t_1_5 - t_2_7 - 500.000000 s_2_7 > -496.689705
t_2_5 - t_1_7 - 500.000000 s_1_7 > -492.251720
t_2_5 - t_2_7 - 500.000000 s_2_7 > -496.689705
t_1_8 - t_1_5 - 500.000000 s_1_5 > -491.667200
t_1_8 - t_2_5 - 500.000000 s_2_5 > -492.149262
t_2_8 - t_1_5 - 500.000000 s_1_5 > -491.667200
t_2_8 - t_2_5 - 500.000000 s_2_5 > -492.149262
t_1_1 - t_1_6 - 500.000000 s_1_6 > -489.295120
t_1_1 - t_2_6 - 500.000000 s_2_6 > -483.908729
t_2_1 - t_1_6 - 500.000000 s_1_6 > -489.295120
t_2_1 - t_2_6 - 500.000000 s_2_6 > -483.908729
t_1_6 - t_1_2 + 500.000000 u_1_6_2 - 3.000000 s_1_2 + 3.000000 s_1_7 > 4.726410
t_1_2 - t_1_6 - 500.000000 u_1_6_2 > -492.295120
t_2_6 - t_2_2 + 500.000000 u_2_6_2 - 3.000000 s_2_2 + 3.000000 s_2_7 > 7.887489
t_2_2 - t_2_6 - 500.000000 u_2_6_2 > -486.908729
t_1_6 - t_1_3 + 500.000000 u_1_6_3 - 3.000000 s_1_3 + 3.000000 s_1_7 > 5.249720
t_1_3 - t_1_6 - 500.000000 u_1_6_3 > -492.295120
t_2_6 - t_2_3 + 500.000000 u_2_6_3 - 3.000000 s_2_3 + 3.000000 s_2_7 > 4.467174
t_2_3 - t_2_6 - 500.000000 u_2_6_3 > -486.908729
t_1_6 - t_1_4 + 500.000000 u_1_6_4 - 6.000000 s_1_4 + 6.000000 s_1_3 > 2.662147
t_1_4 - t_1_6 - 500.000000 u_1_6_4 > -492.295120
t_2_6 - t_2_4 + 500.000000 u_2_6_4 - 6.000000 s_2_4 + 6.000000 s_2_3 > 4.325844
t_2_4 - t_2_6 - 500.000000 u_2_6_4 > -486.908729
t_1_5 - t_1_6 - 500.000000 s_1_6 > -489.295120
t_1_5 - t_2_6 - 500.000000 s_2_6 > -483.908729
t_2_5 - t_1_6 - 500.000000 s_1_6 > -489.295120
t_2_5 - t_2_6 - 500.000000 s_2_6 > -483.908729
t_1_6 - t_1_7 + 500.000000 u_1_6_7 > 4.748280
t_1_7 - t_1_6 - 500.000000 u_1_6_7 > -492.295120
t_2_6 - t_2_7 + 500.000000 u_2_6_7 > 0.310295
t_2_7 - t_2_6 - 500.000000 u_2_6_7 > -486.908729
t_1_7 - t_1_1 + 500.000000 u_1_7_1 - 3.000000 s_1_1 + 3.000000 s_1_6 > 3.698280
t_1_1 - t_1_7 - 500.000000 u_1_7_1 > -495.251720
t_2_7 - t_2_1 + 500.000000 u_2_7_1 - 3.000000 s_2_1 + 3.000000 s_2_6 > 6.180755
t_2_1 - t_2_7 - 500.000000 u_2_7_1 > -499.689705
t_1_2 - t_1_7 - 500.000000 s_1_7 > -492.251720
t_1_2 - t_2_7 - 500.000000 s_2_7 > -496.689705
t_2_2 - t_1_7 - 500.000000 s_1_7 > -492.251720
t_2_2 - t_2_7 - 500.000000 s_2_7 > -496.689705
t_1_3 - t_1_7 - 500.000000 s_1_7 > -492.251720
t_1_3 - t_2_7 - 500.000000 s_2_7 > -496.689705
t_2_3 - t_1_7 - 500.000000 s_1_7 > -492.251720
t_2_3 - t_2_7 - 500.000000 s_2_7 > -496.689705
t_1_4 - t_1_7 - 500.000000 s_1_7 > -492.251720
t_1_4 - t_2_7 - 500.000000 s_2_7 > -496.689705
t_2_4 - t_1_7 - 500.000000 s_1_7 > -492.251720
t_2_4 - t_2_7 - 500.000000 s_2_7 > -496.689705
t_1_5 - t_1_7 - 500.000000 s_1_7 > -492.251720
t_1_5 - t_2_7 - 500.000000 s_2_7 > -496.689705
t_2_5 - t_1_7 - 500.000000 s_1_7 > -492.251720
t_2_5 - t_2_7 - 500.000000 s_2_7 > -496.689705
t_1_7 - t_1_6 + 500.000000 u_1_7_6 > 7.704880
t_1_6 - t_1_7 - 500.000000 u_1_7_6 > -495.251720
t_2_7 - t_2_6 + 500.000000 u_2_7_6 > 13.091271
t_2_6 - t_2_7 - 500.000000 u_2_7_6 > -499.689705
t_1_8 - t_1_1 - 500.000000 s_1_1 > -493.301720
t_1_8 - t_2_1 - 500.000000 s_2_1 > -490.819245
t_2_8 - t_1_1 - 500.000000 s_1_1 > -493.301720
t_2_8 - t_2_1 - 500.000000 s_2_1 > -490.819245
t_1_8 - t_1_2 - 500.000000 s_1_2 > -492.273590
t_1_8 - t_2_2 - 500.000000 s_2_2 > -489.112511
t_2_8 - t_1_2 - 500.000000 s_1_2 > -492.273590
t_2_8 - t_2_2 - 500.000000 s_2_2 > -489.112511
t_1_8 - t_1_3 - 500.000000 s_1_3 > -491.750280
t_1_8 - t_2_3 - 500.000000 s_2_3 > -492.532826
t_2_8 - t_1_3 - 500.000000 s_1_3 > -491.750280
t_2_8 - t_2_3 - 500.000000 s_2_3 > -492.532826
t_1_8 - t_1_4 - 500.000000 s_1_4 > -491.337853
t_1_8 - t_2_4 - 500.000000 s_2_4 > -489.674156
t_2_8 - t_1_4 - 500.000000 s_1_4 > -491.337853
t_2_8 - t_2_4 - 500.000000 s_2_4 > -489.674156
t_1_8 - t_1_5 - 500.000000 s_1_5 > -491.667200
t_1_8 - t_2_5 - 500.000000 s_2_5 > -492.149262
t_2_8 - t_1_5 - 500.000000 s_1_5 > -491.667200
t_2_8 - t_2_5 - 500.000000 s_2_5 > -492.149262
Binary
s_1_1
s_2_1
s_1_2
s_2_2
s_1_3
s_2_3
s_1_4
s_2_4
s_1_5
s_2_5
s_1_6
s_2_6
s_1_7
s_2_7
s_1_8
s_2_8
u_1_1_2
u_2_1_2
u_1_1_3
u_2_1_3
u_1_1_4
u_2_1_4
u_1_1_5
u_2_1_5
u_1_1_7
u_2_1_7
u_1_2_1
u_2_2_1
u_1_2_3
u_2_2_3
u_1_2_4
u_2_2_4
u_1_2_5
u_2_2_5
u_1_2_6
u_2_2_6
u_1_3_1
u_2_3_1
u_1_3_2
u_2_3_2
u_1_3_5
u_2_3_5
u_1_3_6
u_2_3_6
u_1_4_1
u_2_4_1
u_1_4_2
u_2_4_2
u_1_4_5
u_2_4_5
u_1_4_6
u_2_4_6
u_1_5_1
u_2_5_1
u_1_5_2
u_2_5_2
u_1_5_3
u_2_5_3
u_1_5_4
u_2_5_4
u_1_6_2
u_2_6_2
u_1_6_3
u_2_6_3
u_1_6_4
u_2_6_4
u_1_6_7
u_2_6_7
u_1_7_1
u_2_7_1
u_1_7_6
u_2_7_6

End
